Maximize
  - 38 C0 + 45 C1 + 21 C2 - 61 C3 + 42 C4
Subject To
 R0: 2 C0 + 2 C1 - 3 C3 + 3 C4 <= 2
 R1: - 3 C0 - C1 + 2 C2 - 2 C3 <= 0
 R2: - 5 C0 + 4 C1 + C2 - 2 C3 + 2 C4 <= 0
 R3: 2 C0 + 3 C1 - 5 C3 + 3 C4 <= 4
 R4: - 5 C0 + C1 + 2 C2 - C3 - 2 C4 <= 0
Bounds
 C0 free
 C1 free
 C2 free
 C3 free
 C4 free
Generals
 C0 C1 C2 C3 C4
End
